#####################################################
log                 log.txt
units               lj
dimension           3
atom_style          molecular
boundary            p p p
read_data           configuration.txt extra/bond/per/atom 5  extra/special/per/atom 20  extra/angle/per/atom 3
variable            ron equal 6.0                              # growth rate [monomers/s]
variable            roff equal 10.0                                # shrink time [monomers/s]
variable            rnuc equal 0.03                                # nucleation rate [filaments/s]
variable            rbr equal 0.03333333333333333                                # branching rate [filaments/s]
variable            rGTP equal 0.5                               # switch rate from GTP->GDP [/s]
variable            rGDP equal 0.5                               # switch rate from GTP->GDP [/s]

variable            Kbond equal 1000                               # bond constant [kT/sigma2]
variable            Kbend equal 1000                               # bend constant [kT/sigma2]
variable            BranchAng equal 12                               # Branching angle [degrees]
variable            eps equal 0.5                               # interaction strength between MTs
variable            epsB equal 0.0                               # interaction strength of branch junction bead (it can overlap)
variable            eps_dd equal 1.0                               # interaction strength of mito wt mito
variable            eps_df equal 1.0                               # interaction strength of mito wt MT
variable            lamda equal 0.2                               # interaction strength of diffusors wt fil 
variable            sigma equal 1.0                               # diameter of filament beads 
variable            sigma_dd equal 6.0                               # diameter of diffusors 
variable            sigma_df equal 3.5                               #  
variable            rc_dd equal 12.0                               # radius cutoff 
variable            rc_df equal 3.5                               #  
variable            rc equal 1.0                               #  
variable            tstep equal  0.0005                                 # simulation timestep size [seconds]
variable            run_time equal 4000.0                            # simulation run time [seconds]
variable            run_time1 equal 1000.0                            # simulation run time [seconds]
variable            frame_rate equal 5.0                          # dumping interval [seconds]
variable            OvaR1 equal 0.9                          # 
variable            OvaR2 equal 3.5                          # 
variable            factor equal 100.0                          # 
variable            seed equal 1.0                                  # random number generator seed
variable            angleImp equal ${BranchAng}/10.0                          # growth probability
variable            kon atom ${ron}/${factor}                       # growth probability
variable            knuc atom ${rnuc}/1.0                        # nucleation probability
variable            koff atom ${roff}/${factor}                        # shrink probability 
variable            sGTP atom ${rGTP}/${factor}                        # switch rate from GTP->GDP
variable            sGDP atom ${rGDP}/${factor}                        # switch rate from GTP->GDP
variable            kbr atom ${rbr}/${factor}                         # branching probability
variable            rstep equal 0.1/${tstep}                      # reaction interval [simulation steps]
variable            run_steps equal ${run_time}/${tstep}          # simulation run time [simulation steps]
variable            run_steps1 equal ${run_time1}/${tstep}          # simulation run time [simulation steps]
variable            dump_time equal ${frame_rate}/${tstep}        # dumping interval [simulation steps]
variable 		    yCoord atom y
variable 		    yEdge atom yhi
variable 		    zCoord atom z
variable 		    zEdge atom zhi
variable 		    xCoord atom x
variable 		    xEdge atom xhi
variable 		    ID atom id
variable            stab_steps equal 1

group               ghosts type 4
group               NucEnd type 2
group               Mito type 7
group               MTs type 1 2 3 5 6

special_bonds       lj 1.0 1.0 1.0
bond_style          harmonic
bond_coeff          1 ${Kbond} 1.0

angle_style         harmonic
angle_coeff         1 ${Kbend} 180.0
angle_coeff	        2 ${Kbend} ${BranchAng}

pair_style          hybrid/overlay lj/cut/soft 1 0.5 ${rc_df} cosine/squared ${rc_df}
pair_coeff          * * cosine/squared 0.00 2.00 ${rc_df}
pair_coeff          * * lj/cut/soft ${eps} ${sigma} ${lamda} ${rc_df}
pair_coeff          1 1 cosine/squared ${eps} ${sigma} ${rc} wca
pair_coeff          1 2 cosine/squared ${eps} ${sigma} ${rc} wca
pair_coeff          1 3 cosine/squared ${eps} ${sigma} ${rc} wca
pair_coeff          2 2 cosine/squared ${eps} ${sigma} ${rc} wca
pair_coeff          2 3 cosine/squared ${eps} ${sigma} ${rc} wca
pair_coeff          3 3 cosine/squared ${eps} ${sigma} ${rc} wca
pair_coeff          5 1 cosine/squared ${eps} ${sigma} ${rc} wca
pair_coeff          5 2 cosine/squared ${eps} ${sigma} ${rc} wca
pair_coeff          5 3 cosine/squared ${eps} ${sigma} ${rc} wca
pair_coeff          5 5 cosine/squared ${eps} ${sigma} ${rc} wca
pair_coeff          6 1 cosine/squared ${epsB} ${sigma} ${rc} wca
pair_coeff          6 2 cosine/squared ${epsB} ${sigma} ${rc} wca
pair_coeff          6 3 cosine/squared ${epsB} ${sigma} ${rc} wca
pair_coeff          6 5 cosine/squared ${epsB} ${sigma} ${rc} wca
pair_coeff          6 6 cosine/squared ${epsB} ${sigma} ${rc} wca
pair_coeff          7 6 cosine/squared ${epsB} ${sigma_df} ${rc_df} wca
pair_coeff          7 1 lj/cut/soft ${eps_df} ${sigma_df} ${lamda} ${rc_df} #Mitochondria have soft core repulsion with the MTs
pair_coeff          7 2 lj/cut/soft ${eps_df} ${sigma_df} ${lamda} ${rc_df}
pair_coeff          7 3 lj/cut/soft ${eps_df} ${sigma_df} ${lamda} ${rc_df}
pair_coeff          7 5 lj/cut/soft ${eps_df} ${sigma_df} ${lamda} ${rc_df}
pair_coeff          7 7 cosine/squared ${eps_dd} ${sigma_dd} ${rc_dd} wca

# Nucleation reactions molecular templates
molecule            mPreNucleation Reactions/Nuc/pre_Nucleation.txt
molecule            mPostNucleation Reactions/Nuc/post_Nucleation.txt

# Death reactions molecular templates
molecule            mPreDeath Reactions/Nuc/pre_Death.txt
molecule            mPostDeath Reactions/Nuc/post_Death.txt

# Poly reactions molecular templates
molecule            mPreDimerOn Reactions/Poly/pre_DimerOn.txt
molecule            mPostDimerOn Reactions/Poly/post_DimerOn.txt
molecule            mPreTrimerOn Reactions/Poly/pre_TrimerOn.txt
molecule            mPostTrimerOn Reactions/Poly/post_TrimerOn.txt
molecule            mPreOligomerOn Reactions/Poly/pre_OligomerOn.txt
molecule            mPostOligomerOn Reactions/Poly/post_OligomerOn.txt

# Depol reactions molecular templates
molecule            mPreDimerOff Reactions/Depoly/pre_DimerOff.txt
molecule            mPostDimerOff Reactions/Depoly/post_DimerOff.txt
molecule            mPreTrimerOff Reactions/Depoly/pre_TrimerOff.txt
molecule            mPostTrimerOff Reactions/Depoly/post_TrimerOff.txt
molecule            mPreOligomerOff Reactions/Depoly/pre_OligomerOff.txt
molecule            mPostOligomerOff Reactions/Depoly/post_OligomerOff.txt

# Tip switch reactions molecular templates
molecule            mPreDimerGDP Reactions/Tip/pre_DimerTipGDP.txt
molecule            mPreDimerGTP Reactions/Tip/pre_DimerTipGTP.txt
molecule            mPreTrimerGDP Reactions/Tip/pre_TrimerTipGDP.txt
molecule            mPreTrimerGTP Reactions/Tip/pre_TrimerTipGTP.txt
molecule            mPreOligomerGDP Reactions/Tip/pre_OligomerTipGDP.txt
molecule            mPreOligomerGTP Reactions/Tip/pre_OligomerTipGTP.txt

# Branching reactions molecular templates
molecule            mPostBranch1_0 Reactions/Branch/post_branch1_0.txt
molecule            mPostBranch1_1 Reactions/Branch/post_branch1_1.txt
molecule            mPostBranch1_2 Reactions/Branch/post_branch1_2.txt
molecule            mPostBranch1_3 Reactions/Branch/post_branch1_3.txt
molecule            mPostBranch1_4 Reactions/Branch/post_branch1_4.txt
molecule            mPostBranch1_5 Reactions/Branch/post_branch1_5.txt
molecule            mPostBranch1_6 Reactions/Branch/post_branch1_6.txt
molecule            mPostBranch1_7 Reactions/Branch/post_branch1_7.txt
molecule            mPostBranch1_8 Reactions/Branch/post_branch1_8.txt
molecule            mPostBranch1_9 Reactions/Branch/post_branch1_9.txt
molecule            mPostBranch1_10 Reactions/Branch/post_branch1_10.txt
molecule            mPostBranch1_11 Reactions/Branch/post_branch1_11.txt
molecule            mPostBranch1_12 Reactions/Branch/post_branch1_12.txt
molecule            mPostBranch1_13 Reactions/Branch/post_branch1_13.txt
molecule            mPostBranch1_14 Reactions/Branch/post_branch1_14.txt

molecule            mPreBranch1 Reactions/Branch/pre_branch1.txt
molecule            mPreBranch3 Reactions/Branch/pre_branch3.txt
molecule            mPostBranch3 Reactions/Branch/post_branch3.txt
molecule            mPreBranch4 Reactions/Branch/pre_branch4.txt
molecule            mPostBranch4 Reactions/Branch/post_branch4.txt
molecule            mPreBranch3Off_v2 Reactions/Branch/pre_branchDepol3_v2.txt
molecule            mPostBranch3Off_v2 Reactions/Branch/post_branchDepol3_v2.txt
molecule            mPreBranch3Off Reactions/Branch/pre_branchDepol3.txt
molecule            mPostBranch3Off Reactions/Branch/post_branchDepol3.txt
molecule            mPreBranch4Off Reactions/Branch/pre_branchDepol4.txt
molecule            mPostBranch4Off Reactions/Branch/post_branchDepol4.txt
molecule            mPreBranch4Off_v2 Reactions/Branch/pre_branchDepol4_v2.txt
molecule            mPostBranch4Off_v2 Reactions/Branch/post_branchDepol4_v2.txt

#Cleaning Up Branch Junctions
molecule            mPreBranchAng Reactions/Depoly/pre_BranchAngle.txt
molecule            mPostBranchAng Reactions/Depoly/post_BranchAngle.txt

fix             freact all bond/react stabilization yes AllAtoms 0.1 reset_mol_ids no &
                react BranchTidy all ${rstep} 0.900000 1.100000 mPreBranchAng mPostBranchAng Reactions/Maps/map_BranchAngle.txt prob 1.0 ${seed} stabilize_steps ${stab_steps}




fix                 fLang all langevin 1.0 1.0 0.1 ${seed}
fix                 fNVE AllAtoms_REACT nve

compute             displacement Mito displace/atom
variable            realtime equal step*${tstep}

dump                1 all custom ${dump_time} output.xyz id mol type x y z 
dump_modify         1 format line "%d %d %d %.2f %.2f %.2f"

dump                3 Mito custom ${dump_time} outputMito.xyz id mol type x y z vx vy vz c_displacement[1] c_displacement[2] c_displacement[3] c_displacement[4]
dump_modify         3 format line "%d %d %d %.2f %.2f %.2f %.2f %.2f %.2f %.2f %.2f %.2f %.2f"

thermo              ${dump_time}
compute_modify      thermo_temp dynamic/dof yes
thermo_style        custom step v_realtime temp pe ke etotal epair ebond eangle press vol density atoms

compute             cBonds all property/local batom1 batom2 btype

dump                2 all local ${dump_time} bonds.dump c_cBonds[*]
dump_modify         2 format line "%f %f %f"

timestep            ${tstep}

run                 ${run_steps1}

write_restart	restart.postwall

unfix           fLang
unfix           fNVE
unfix           freact

fix             freact all bond/react stabilization yes AllAtoms 0.1 reset_mol_ids no &
                react BranchTidy all ${rstep} 0.900000 1.100000 mPreBranchAng mPostBranchAng Reactions/Maps/map_BranchAngle.txt prob 1.0 ${seed} stabilize_steps ${stab_steps} &
                react Nucleation all ${rstep} 0.900000 1.100000 mPreNucleation mPostNucleation Reactions/Maps/map_Nucleation.txt prob 1.0 ${seed} stabilize_steps ${stab_steps} modify_create overlap ${OvaR1} ${OvaR2} modify_create nuc xwalls -2 &
                react Death all ${rstep} 0.900000 1.100000 mPreDeath mPostDeath Reactions/Maps/map_Death.txt prob 1.0 ${seed} stabilize_steps ${stab_steps} &
                react DimerOn all ${rstep} 0.900000 1.100000 mPreDimerOn mPostDimerOn Reactions/Maps/map_DimerOn.txt prob 1.0 ${seed} stabilize_steps ${stab_steps} modify_create fit 1 modify_create overlap ${OvaR1} ${OvaR2}  &
                react TrimerOn all ${rstep} 0.900000 1.100000 mPreTrimerOn mPostTrimerOn Reactions/Maps/map_TrimerOn.txt prob 1.0 ${seed} stabilize_steps ${stab_steps} modify_create fit 1 modify_create overlap ${OvaR1} ${OvaR2} &
                react OligomerOn all ${rstep} 0.900000 1.100000 mPreOligomerOn mPostOligomerOn Reactions/Maps/map_OligomerOn.txt prob 1.0 ${seed} stabilize_steps ${stab_steps} modify_create fit 1 modify_create overlap ${OvaR1} ${OvaR2} &
                react OligomerOff all ${rstep} 0.900000 1.100000 mPreOligomerOff mPostOligomerOff Reactions/Maps/map_OligomerOff.txt prob 1.0 ${seed} stabilize_steps ${stab_steps} &
                react TrimerOff all ${rstep} 0.900000 1.100000 mPreTrimerOff mPostTrimerOff Reactions/Maps/map_TrimerOff.txt prob 1.0 ${seed} stabilize_steps ${stab_steps} &
                react DimerOff all ${rstep} 0.900000 1.100000 mPreDimerOff mPostDimerOff Reactions/Maps/map_DimerOff.txt prob 1.0 ${seed} stabilize_steps ${stab_steps} &
                react tipGTP all ${rstep} 0.900000 1.100000 mPreOligomerGDP mPreOligomerGTP Reactions/Maps/map_TipGTP.txt prob 1.0 ${seed} stabilize_steps ${stab_steps} &
                react tipGDP all ${rstep} 0.900000 1.100000 mPreOligomerGTP mPreOligomerGDP Reactions/Maps/map_TipGDP.txt prob 1.0 ${seed} stabilize_steps ${stab_steps} &
                react tipTrimGTP all ${rstep} 0.900000 1.100000 mPreTrimerGDP mPreTrimerGTP Reactions/Maps/map_TipGTPtrim.txt prob 1.0 ${seed} stabilize_steps ${stab_steps} &
                react tipTrimGDP all ${rstep} 0.900000 1.100000 mPreTrimerGTP mPreTrimerGDP Reactions/Maps/map_TipGDPtrim.txt prob 1.0 ${seed} stabilize_steps ${stab_steps} &
                react tipDimGTP all ${rstep} 0.900000 1.100000 mPreDimerGDP mPreDimerGTP Reactions/Maps/map_TipGTP.txt prob 1.0 ${seed} stabilize_steps ${stab_steps} &
                react tipDimGDP all ${rstep} 0.900000 1.100000 mPreDimerGTP mPreDimerGDP Reactions/Maps/map_TipGDP.txt prob 1.0 ${seed} stabilize_steps ${stab_steps} &
                react Branch3 all ${rstep} 0.900000 1.100000 mPreBranch3 mPostBranch3 Reactions/Maps/map_Branch3.txt prob 1.0 ${seed} stabilize_steps ${stab_steps} modify_create fit 3 modify_create overlap ${OvaR1} ${OvaR2} &
                react Branch4 all ${rstep} 0.900000 1.100000 mPreBranch4 mPostBranch4 Reactions/Maps/map_OligomerOn.txt prob 1.0 ${seed} stabilize_steps ${stab_steps} modify_create fit 3 modify_create overlap ${OvaR1} ${OvaR2} &
                react DepBranch3 all ${rstep} 0.900000 1.100000 mPreBranch3Off mPostBranch3Off Reactions/Maps/map_DepolBranch3.txt prob 1.0 ${seed} stabilize_steps ${stab_steps} &
                react DepBranch3_v2 all ${rstep} 0.900000 1.100000 mPreBranch3Off_v2 mPostBranch3Off_v2 Reactions/Maps/map_DepolBranch3.txt prob 1.0 ${seed} stabilize_steps ${stab_steps} &
                react DepBranch4 all ${rstep} 0.900000 1.100000 mPreBranch4Off mPostBranch4Off Reactions/Maps/map_DepolBranch4.txt prob 1.0 ${seed} stabilize_steps ${stab_steps} &
                react DepBranch4_v2 all ${rstep} 0.900000 1.100000 mPreBranch4Off_v2 mPostBranch4Off_v2 Reactions/Maps/map_DepolBranch4.txt prob 1.0 ${seed} stabilize_steps ${stab_steps} &
				react Branch_0 all ${rstep} 0.900000 1.100000 mPreBranch1 mPostBranch1_0 Reactions/Maps/map_Branch1.txt prob 0.1 ${seed} stabilize_steps ${stab_steps} modify_create fit 3 modify_create overlap ${OvaR1} ${OvaR2} &
				react Branch_1 all ${rstep} 0.900000 1.100000 mPreBranch1 mPostBranch1_1 Reactions/Maps/map_Branch1.txt prob 0.1 ${seed} stabilize_steps ${stab_steps} modify_create fit 3 modify_create overlap ${OvaR1} ${OvaR2} &
				react Branch_2 all ${rstep} 0.900000 1.100000 mPreBranch1 mPostBranch1_2 Reactions/Maps/map_Branch1.txt prob 0.1 ${seed} stabilize_steps ${stab_steps} modify_create fit 3 modify_create overlap ${OvaR1} ${OvaR2} &
				react Branch_3 all ${rstep} 0.900000 1.100000 mPreBranch1 mPostBranch1_3 Reactions/Maps/map_Branch1.txt prob 0.1 ${seed} stabilize_steps ${stab_steps} modify_create fit 3 modify_create overlap ${OvaR1} ${OvaR2} &
				react Branch_4 all ${rstep} 0.900000 1.100000 mPreBranch1 mPostBranch1_4 Reactions/Maps/map_Branch1.txt prob 0.1 ${seed} stabilize_steps ${stab_steps} modify_create fit 3 modify_create overlap ${OvaR1} ${OvaR2} &
				react Branch_5 all ${rstep} 0.900000 1.100000 mPreBranch1 mPostBranch1_5 Reactions/Maps/map_Branch1.txt prob 0.1 ${seed} stabilize_steps ${stab_steps} modify_create fit 3 modify_create overlap ${OvaR1} ${OvaR2} &
				react Branch_6 all ${rstep} 0.900000 1.100000 mPreBranch1 mPostBranch1_6 Reactions/Maps/map_Branch1.txt prob 0.1 ${seed} stabilize_steps ${stab_steps} modify_create fit 3 modify_create overlap ${OvaR1} ${OvaR2} &
				react Branch_7 all ${rstep} 0.900000 1.100000 mPreBranch1 mPostBranch1_7 Reactions/Maps/map_Branch1.txt prob 0.1 ${seed} stabilize_steps ${stab_steps} modify_create fit 3 modify_create overlap ${OvaR1} ${OvaR2} &
				react Branch_8 all ${rstep} 0.900000 1.100000 mPreBranch1 mPostBranch1_8 Reactions/Maps/map_Branch1.txt prob 0.1 ${seed} stabilize_steps ${stab_steps} modify_create fit 3 modify_create overlap ${OvaR1} ${OvaR2} &
				react Branch_9 all ${rstep} 0.900000 1.100000 mPreBranch1 mPostBranch1_9 Reactions/Maps/map_Branch1.txt prob 0.1 ${seed} stabilize_steps ${stab_steps} modify_create fit 3 modify_create overlap ${OvaR1} ${OvaR2} &
				react Branch_10 all ${rstep} 0.900000 1.100000 mPreBranch1 mPostBranch1_10 Reactions/Maps/map_Branch1.txt prob 0.1 ${seed} stabilize_steps ${stab_steps} modify_create fit 3 modify_create overlap ${OvaR1} ${OvaR2} &
				react Branch_11 all ${rstep} 0.900000 1.100000 mPreBranch1 mPostBranch1_11 Reactions/Maps/map_Branch1.txt prob 0.1 ${seed} stabilize_steps ${stab_steps} modify_create fit 3 modify_create overlap ${OvaR1} ${OvaR2} &
				react Branch_12 all ${rstep} 0.900000 1.100000 mPreBranch1 mPostBranch1_12 Reactions/Maps/map_Branch1.txt prob 0.1 ${seed} stabilize_steps ${stab_steps} modify_create fit 3 modify_create overlap ${OvaR1} ${OvaR2} &
				react Branch_13 all ${rstep} 0.900000 1.100000 mPreBranch1 mPostBranch1_13 Reactions/Maps/map_Branch1.txt prob 0.1 ${seed} stabilize_steps ${stab_steps} modify_create fit 3 modify_create overlap ${OvaR1} ${OvaR2} &
				react Branch_14 all ${rstep} 0.900000 1.100000 mPreBranch1 mPostBranch1_14 Reactions/Maps/map_Branch1.txt prob 0.1 ${seed} stabilize_steps ${stab_steps} modify_create fit 3 modify_create overlap ${OvaR1} ${OvaR2} &


############# GROUPS AND COUNTING ###############

variable            vMaskGTPType atom "type==3"
group               FilGTP dynamic all var vMaskGTPType every 1
variable            vNumGTP equal count(FilGTP)
variable            vMaskGDPType atom "type==5"
group               FilGDP dynamic all var vMaskGDPType every 1
variable            vNumGDP equal count(FilGDP)

variable            vMaskAlive atom "type==1 || type==2 || type==3 || type==5"
group               alive dynamic all var vMaskAlive every 1
variable            vNumAlive equal count(alive)

variable            vNumNuc equal f_freact[1]
variable            vDeath equal f_freact[2]
variable            vNumPoly equal f_freact[5]
variable            vNumDepoly equal f_freact[6]



region End1 block 92.0 100.0 -25.0 25.0 -25.0 25.0
region End2 block -100.0 -92.0 -25.0 25.0 -25.0 25.0
region Ends union 2 End1 End2
## Attempting to force more alignment##

group MtsInEnd dynamic all region Ends every ${rstep}


fix                 fLang all langevin 1.0 1.0 0.1 ${seed}
#fix                 fLang MtsInEnd langevin 0.01 0.01 0.1 ${seed}
fix                 fNVE AllAtoms_REACT nve

fix                 print_thermo all ave/time ${dump_time} 1 ${dump_time} v_vNumGTP v_vNumGDP v_vNumAlive v_vNumPoly v_vNumDepoly v_vNumNuc v_vDeath file thermo.txt

run ${run_steps}
#fix tether MtsInEnd spring/self 10.0
#every ${rstep} &
#  "group InEnd region end" &
#  "group MtsInEnd intersect InEnd MTs" &
#  "fix tether MtsInEnd spring/self 10.0" 

#run                 ${run_steps}

